####################################################################### 
# 
# This file contains crystal structure data downloaded from the 
# Cambridge Structural Database (CSD) hosted by the Cambridge 
# Crystallographic Data Centre (CCDC).
# 
# Full information about CCDC data access policies and citation 
# guidelines are available at http://www.ccdc.cam.ac.uk/access/V1 
# 
# Audit and citation data items may have been added by the CCDC. 
# Please retain this information to preserve the provenance of 
# this file and to allow appropriate attribution of the data. 
# 
#######################################################################

data_05014n
_audit_block_doi                 10.5517/ccpm16j
_database_code_depnum_ccdc_archive 'CCDC 643907'
loop_
_citation_id
_citation_doi
_citation_year
1 10.1080/15421400600786371 2006
_audit_update_record             
;
2007-04-12 deposited with the CCDC.	2023-11-11 downloaded from the CCDC.
;



_audit_creation_method           SHELXL-97

_chemical_name_systematic        
;

?

;

_chemical_name_common            05014

_chemical_melting_point          ?

_chemical_formula_moiety         'C7 H8 N2 O2'

_chemical_formula_sum            'C7 H8 N2 O2'

_chemical_formula_weight         152.15



loop_

_atom_type_symbol

_atom_type_description

_atom_type_scat_dispersion_real

_atom_type_scat_dispersion_imag

_atom_type_scat_source








C C 0.0033 0.0000 'International Tables Vol C Tables 4.2.6.8 and 6.1.1.4'
H H 0.0000 0.0000 'International Tables Vol C Tables 4.2.6.8 and 6.1.1.4'
N N 0.0061 0.0000 'International Tables Vol C Tables 4.2.6.8 and 6.1.1.4'
O O 0.0106 0.0000 'International Tables Vol C Tables 4.2.6.8 and 6.1.1.4'



_symmetry_cell_setting           Monoclinic

_symmetry_space_group_name_H-M   Cc



loop_

_symmetry_equiv_pos_as_xyz




'x, y, z'
'x, -y, z+1/2'
'x+1/2, y+1/2, z'
'x+1/2, -y+1/2, z+1/2'



_cell_length_a                   10.7232(15)

_cell_length_b                   11.5744(16)

_cell_length_c                   7.4661(10)

_cell_angle_alpha                90.00

_cell_angle_beta                 130.420(2)

_cell_angle_gamma                90.00

_cell_volume                     705.47(17)

_cell_formula_units_Z            4

_cell_measurement_temperature    173(2)

_cell_measurement_reflns_used    1426

_cell_measurement_theta_min      3.05

_cell_measurement_theta_max      27.48



_exptl_crystal_description       rod

_exptl_crystal_colour            yellow

_exptl_crystal_size_max          0.25

_exptl_crystal_size_mid          0.15

_exptl_crystal_size_min          0.10

_exptl_crystal_density_meas      ?

_exptl_crystal_density_diffrn    1.433

_exptl_crystal_density_method    'not measured'

_exptl_crystal_F_000             320

_exptl_absorpt_coefficient_mu    0.108

_exptl_absorpt_correction_type   multi-scan

_exptl_absorpt_correction_T_min  0.9736

_exptl_absorpt_correction_T_max  0.9893

_exptl_absorpt_process_details   'SADABS, R. Blessing, 1995'



_exptl_special_details           
;

?

;



_diffrn_ambient_temperature      173(2)

_diffrn_radiation_wavelength     0.71073

_diffrn_radiation_type           MoK\a

_diffrn_radiation_source         'normal-focus sealed tube'

_diffrn_radiation_monochromator  graphite

_diffrn_measurement_device_type  'Bruker SMART Platform CCD'

_diffrn_measurement_method       'area detector, omega scans per phi'

_diffrn_detector_area_resol_mean ?

_diffrn_standards_number         ?

_diffrn_standards_interval_count ?

_diffrn_standards_interval_time  ?

_diffrn_standards_decay_%        ?

_diffrn_reflns_number            2624

_diffrn_reflns_av_R_equivalents  0.0300

_diffrn_reflns_av_sigmaI/netI    0.0276

_diffrn_reflns_limit_h_min       -13

_diffrn_reflns_limit_h_max       13

_diffrn_reflns_limit_k_min       -14

_diffrn_reflns_limit_k_max       14

_diffrn_reflns_limit_l_min       -9

_diffrn_reflns_limit_l_max       7

_diffrn_reflns_theta_min         3.05

_diffrn_reflns_theta_max         27.52

_reflns_number_total             812

_reflns_number_gt                740

_reflns_threshold_expression     >2sigma(I)



_computing_data_collection       'SMART, Bruker'

_computing_cell_refinement       'SAINT, Bruker'

_computing_data_reduction        'SAINT, Bruker'

_computing_structure_solution    'SHELXS-97 (Sheldrick, 1990)'

_computing_structure_refinement  'SHELXL-97 (Sheldrick, 1997)'

_computing_molecular_graphics    'SHELXTL, Bruker'

_computing_publication_material  'Bruker SHELXTL'



_refine_special_details          
;

Refinement of F^2^ against ALL reflections. The weighted R-factor wR and

goodness of fit S are based on F^2^, conventional R-factors R are based

on F, with F set to zero for negative F^2^. The threshold expression of

F^2^ > 2sigma(F^2^) is used only for calculating R-factors(gt) etc. and is

not relevant to the choice of reflections for refinement. R-factors based

on F^2^ are statistically about twice as large as those based on F, and R-

factors based on ALL data will be even larger.

;



_refine_ls_structure_factor_coef Fsqd

_refine_ls_matrix_type           full

_refine_ls_weighting_scheme      calc

_refine_ls_weighting_details     
'calc w=1/[\s^2^(Fo^2^)+(0.0730P)^2^+0.0000P] where P=(Fo^2^+2Fc^2^)/3'

_atom_sites_solution_primary     direct

_atom_sites_solution_secondary   difmap

_atom_sites_solution_hydrogens   geom

_refine_ls_hydrogen_treatment    riding

_refine_ls_extinction_method     none

_refine_ls_extinction_coef       ?

_refine_ls_abs_structure_details 'Flack H D (1983), Acta Cryst. A39, 876-881'

_refine_ls_abs_structure_Flack   0(10)

_refine_ls_number_reflns         812

_refine_ls_number_parameters     101

_refine_ls_number_restraints     2

_refine_ls_R_factor_all          0.0379

_refine_ls_R_factor_gt           0.0331

_refine_ls_wR_factor_ref         0.0939

_refine_ls_wR_factor_gt          0.0890

_refine_ls_goodness_of_fit_ref   1.044

_refine_ls_restrained_S_all      1.043

_refine_ls_shift/su_max          0.000

_refine_ls_shift/su_mean         0.000



loop_

_atom_site_label

_atom_site_type_symbol

_atom_site_fract_x

_atom_site_fract_y

_atom_site_fract_z

_atom_site_U_iso_or_equiv

_atom_site_adp_type

_atom_site_occupancy

_atom_site_symmetry_multiplicity

_atom_site_calc_flag

_atom_site_refinement_flags

_atom_site_disorder_assembly

_atom_site_disorder_group



















O1 O 0.8931(2) 0.34931(15) 0.7030(3) 0.0355(4) Uani 1 1 d . . .
O2 O 0.9769(2) 0.52532(16) 0.7618(4) 0.0468(6) Uani 1 1 d . . .
N1 N 0.2763(2) 0.61418(16) 0.4129(4) 0.0279(5) Uani 1 1 d . . .
H4 H 0.2607 0.6892 0.4079 0.033 Uiso 1 1 calc R . .
H5 H 0.1981 0.5659 0.3711 0.033 Uiso 1 1 calc R . .
N2 N 0.8704(2) 0.45383(18) 0.7010(3) 0.0277(5) Uani 1 1 d . . .
C1 C 0.4209(3) 0.57314(19) 0.4849(4) 0.0216(4) Uani 1 1 d . . .
C2 C 0.4473(2) 0.45322(18) 0.4893(3) 0.0213(5) Uani 1 1 d . . .
C3 C 0.5958(3) 0.41511(19) 0.5600(4) 0.0226(4) Uani 1 1 d . . .
H1 H 0.6150 0.3347 0.5627 0.027 Uiso 1 1 calc R . .
C4 C 0.7173(2) 0.4947(2) 0.6273(4) 0.0225(4) Uani 1 1 d . . .
C5 C 0.6926(3) 0.61306(19) 0.6215(4) 0.0245(5) Uani 1 1 d . . .
H2 H 0.7757 0.6662 0.6650 0.029 Uiso 1 1 calc R . .
C6 C 0.5452(2) 0.6518(2) 0.5513(4) 0.0248(5) Uani 1 1 d . . .
H3 H 0.5270 0.7324 0.5475 0.030 Uiso 1 1 calc R . .
C7 C 0.3142(3) 0.3696(2) 0.4172(4) 0.0273(5) Uani 1 1 d . . .
H6 H 0.3544 0.2903 0.4409 0.041 Uiso 1 1 calc R . .
H7 H 0.2188 0.3813 0.2508 0.041 Uiso 1 1 calc R . .
H8 H 0.2828 0.3829 0.5129 0.041 Uiso 1 1 calc R . .



loop_

_atom_site_aniso_label

_atom_site_aniso_U_11

_atom_site_aniso_U_22

_atom_site_aniso_U_33

_atom_site_aniso_U_23

_atom_site_aniso_U_13

_atom_site_aniso_U_12











O1 0.0293(9) 0.0295(9) 0.0500(11) 0.0018(7) 0.0268(9) 0.0065(7)
O2 0.0242(9) 0.0392(10) 0.0762(15) -0.0044(11) 0.0322(10) -0.0035(8)
N1 0.0204(10) 0.0252(10) 0.0371(11) 0.0000(8) 0.0183(9) 0.0026(7)
N2 0.0186(9) 0.0309(10) 0.0343(11) 0.0012(8) 0.0175(8) 0.0023(7)
C1 0.0193(10) 0.0258(11) 0.0204(10) 0.0005(8) 0.0131(9) 0.0004(8)
C2 0.0185(10) 0.0239(11) 0.0199(10) -0.0025(8) 0.0117(9) -0.0027(8)
C3 0.0211(10) 0.0221(9) 0.0260(10) 0.0003(8) 0.0159(8) 0.0008(8)
C4 0.0171(10) 0.0260(10) 0.0248(10) 0.0000(8) 0.0137(9) 0.0022(7)
C5 0.0209(9) 0.0259(11) 0.0260(11) -0.0008(8) 0.0150(9) -0.0034(8)
C6 0.0216(11) 0.0226(10) 0.0275(11) -0.0004(8) 0.0147(9) 0.0016(8)
C7 0.0224(10) 0.0283(11) 0.0357(11) -0.0054(9) 0.0208(9) -0.0052(8)



_geom_special_details            
;

All esds (except the esd in the dihedral angle between two l.s. planes)

are estimated using the full covariance matrix. The cell esds are taken

into account individually in the estimation of esds in distances, angles

and torsion angles; correlations between esds in cell parameters are only

used when they are defined by crystal symmetry. An approximate (isotropic)

treatment of cell esds is used for estimating esds involving l.s. planes.

;



loop_

_geom_bond_atom_site_label_1

_geom_bond_atom_site_label_2

_geom_bond_distance

_geom_bond_site_symmetry_2

_geom_bond_publ_flag



















O1 N2 1.232(3) . ?
O2 N2 1.234(2) . ?
N1 C1 1.356(3) . ?
N1 H4 0.8800 . ?
N1 H5 0.8800 . ?
N2 C4 1.432(3) . ?
C1 C6 1.412(3) . ?
C1 C2 1.413(3) . ?
C2 C3 1.385(3) . ?
C2 C7 1.506(3) . ?
C3 C4 1.397(3) . ?
C3 H1 0.9500 . ?
C4 C5 1.390(3) . ?
C5 C6 1.378(3) . ?
C5 H2 0.9500 . ?
C6 H3 0.9500 . ?
C7 H6 0.9800 . ?
C7 H7 0.9800 . ?
C7 H8 0.9800 . ?



loop_

_geom_angle_atom_site_label_1

_geom_angle_atom_site_label_2

_geom_angle_atom_site_label_3

_geom_angle

_geom_angle_site_symmetry_1

_geom_angle_site_symmetry_3

_geom_angle_publ_flag






























C1 N1 H4 120.0 . . ?
C1 N1 H5 120.0 . . ?
H4 N1 H5 120.0 . . ?
O1 N2 O2 121.72(19) . . ?
O1 N2 C4 119.83(19) . . ?
O2 N2 C4 118.45(18) . . ?
N1 C1 C6 119.33(19) . . ?
N1 C1 C2 120.93(18) . . ?
C6 C1 C2 119.72(19) . . ?
C3 C2 C1 119.04(17) . . ?
C3 C2 C7 121.37(19) . . ?
C1 C2 C7 119.59(18) . . ?
C2 C3 C4 120.06(19) . . ?
C2 C3 H1 120.0 . . ?
C4 C3 H1 120.0 . . ?
C5 C4 C3 121.6(2) . . ?
C5 C4 N2 119.1(2) . . ?
C3 C4 N2 119.3(2) . . ?
C6 C5 C4 118.7(2) . . ?
C6 C5 H2 120.6 . . ?
C4 C5 H2 120.6 . . ?
C5 C6 C1 120.9(2) . . ?
C5 C6 H3 119.6 . . ?
C1 C6 H3 119.6 . . ?
C2 C7 H6 109.5 . . ?
C2 C7 H7 109.5 . . ?
H6 C7 H7 109.5 . . ?
C2 C7 H8 109.5 . . ?
H6 C7 H8 109.5 . . ?
H7 C7 H8 109.5 . . ?



loop_

_geom_torsion_atom_site_label_1

_geom_torsion_atom_site_label_2

_geom_torsion_atom_site_label_3

_geom_torsion_atom_site_label_4

_geom_torsion

_geom_torsion_site_symmetry_1

_geom_torsion_site_symmetry_2

_geom_torsion_site_symmetry_3

_geom_torsion_site_symmetry_4

_geom_torsion_publ_flag

















N1 C1 C2 C3 178.8(2) . . . . ?
C6 C1 C2 C3 0.2(3) . . . . ?
N1 C1 C2 C7 -1.1(3) . . . . ?
C6 C1 C2 C7 -179.7(2) . . . . ?
C1 C2 C3 C4 0.5(3) . . . . ?
C7 C2 C3 C4 -179.6(2) . . . . ?
C2 C3 C4 C5 -1.2(4) . . . . ?
C2 C3 C4 N2 179.7(2) . . . . ?
O1 N2 C4 C5 -178.7(2) . . . . ?
O2 N2 C4 C5 1.5(3) . . . . ?
O1 N2 C4 C3 0.5(3) . . . . ?
O2 N2 C4 C3 -179.4(2) . . . . ?
C3 C4 C5 C6 1.1(3) . . . . ?
N2 C4 C5 C6 -179.73(19) . . . . ?
C4 C5 C6 C1 -0.4(4) . . . . ?
N1 C1 C6 C5 -178.9(2) . . . . ?
C2 C1 C6 C5 -0.2(3) . . . . ?



loop_

_geom_hbond_atom_site_label_D

_geom_hbond_atom_site_label_H

_geom_hbond_atom_site_label_A

_geom_hbond_distance_DH

_geom_hbond_distance_HA

_geom_hbond_distance_DA

_geom_hbond_angle_DHA

_geom_hbond_site_symmetry_A


N1 H4 O1 0.88 2.50 3.186(3) 135.2 3_455
N1 H5 O2 0.88 2.21 3.081(3) 168.9 2_464



_diffrn_measured_fraction_theta_max 0.994

_diffrn_reflns_theta_full        27.52

_diffrn_measured_fraction_theta_full 0.994

_refine_diff_density_max         0.271

_refine_diff_density_min         -0.168

_refine_diff_density_rms         0.048



